
Log started (V11.0.0) Sun Apr 13 14:35:49 2008

Tried aggregator 1 time.
Reduced MIP has 510 rows, 5001 columns, and 10010 nonzeros.
Presolve time =    0.03 sec.
Clique table members: 500.
MIP emphasis: balance optimality and feasibility.
MIP search method: dynamic search.
Parallel mode: none, using 1 thread.
Root relaxation solution time =    0.12 sec.

        Nodes                                         Cuts/
   Node  Left     Objective  IInf  Best Integer     Best Node    ItCnt     Gap

*     0+    0                        25060.0000      501.3292      575   98.00%
*     0+    0                          514.0000      501.3292      575    2.47%
      0     0      502.0000    22      514.0000      Fract: 9      587    2.33%
      0     0      502.0000    22      514.0000     Covers: 2      605    2.33%
*     0+    0                          513.0000      502.0000      605    2.14%
      0     0      502.0000    17      513.0000     Covers: 1      610    2.14%
*     0+    0                          512.0000      502.0000      610    1.95%
      0     0      502.0000    22      512.0000     Covers: 2      632    1.95%
*     0+    0                          507.0000      502.0000      632    0.99%
*     0+    0                          505.0000      502.0000      632    0.59%

Repeating presolve.
Tried aggregator 1 time.
MIP Presolve eliminated 14 rows and 3156 columns.
Aggregator did 86 substitutions.
Reduced MIP has 410 rows, 1759 columns, and 3526 nonzeros.
Tried aggregator 1 time.
Represolve time =    0.08 sec.
Clique table members: 400.
MIP emphasis: balance optimality and feasibility.
MIP search method: dynamic search.
Parallel mode: none, using 1 thread.
Root relaxation solution time =    0.03 sec.

        Nodes                                         Cuts/
   Node  Left     Objective  IInf  Best Integer     Best Node    ItCnt     Gap

      0     0      502.0000    21      505.0000      502.0000      346    0.59%
      0     2      502.0000    21      505.0000      502.0000      346    0.59%
    100    75      503.0000    16      505.0000      502.0000     2416    0.59%
    200   137    infeasible            505.0000      502.0000     5567    0.59%
    300   185      504.0000    17      505.0000      502.0000     8155    0.59%
    400   254      503.0000    20      505.0000      502.0000    10828    0.59%
    500   332      503.0000    18      505.0000      502.0000    14366    0.59%
    600   373      502.0000    16      505.0000      502.0000    20387    0.59%
    700   360      504.0000    18      505.0000      502.0000    25604    0.59%
    800   349      502.2076    25      505.0000      502.0000    31203    0.59%
    900   327      504.0000    18      505.0000      502.0000    35370    0.59%
   1000   332      504.0000    21      505.0000      502.0000    39650    0.59%
Elapsed time =  14.25 sec. (tree size =  0.27 MB, solutions = 6)
   1100   394      502.0000    23      505.0000      502.0000    45609    0.59%
   1200   481      504.0000    17      505.0000      502.0000    50469    0.59%
   1300   560      503.0000    25      505.0000      502.0000    56379    0.59%
*  1364+  432                          504.0000      502.0000    61340    0.40%
   1400   465      503.0000    16      504.0000      502.0000    63137    0.40%
   1500   538    infeasible            504.0000      502.0000    68409    0.40%
   1600   616      503.0000    24      504.0000      502.0000    76135    0.40%
   1700   694      503.0000    22      504.0000      502.0000    81790    0.40%
*  1734+  228                          503.0000      502.0000    83318    0.20%
   1800   267      502.0000    42      503.0000      502.0000    94783    0.20%
   1900   295      502.0000    44      503.0000      502.0000   118910    0.20%
   2000   320      502.0000    68      503.0000      502.0000   147189    0.20%
Elapsed time =  37.63 sec. (tree size =  0.22 MB, solutions = 8)
   2100   326    infeasible            503.0000      502.0000   181330    0.20%
   2200   360      502.0000    53      503.0000      502.0000   208901    0.20%
   2300   402      502.0000    61      503.0000      502.0000   234178    0.20%
   2400   370      502.0000    55      503.0000      502.0000   274978    0.20%
   2500   363      502.0000    46      503.0000      502.0000   312568    0.20%
   2600   377      502.0000    68      503.0000      502.0000   345564    0.20%
   2700   333    infeasible            503.0000      502.0000   395063    0.20%
   2800   335    infeasible            503.0000      502.0000   436545    0.20%
   2900   335    infeasible            503.0000      502.0000   485269    0.20%
   3000   317    infeasible            503.0000      502.0000   534691    0.20%
Elapsed time = 137.59 sec. (tree size =  0.23 MB, solutions = 8)
   3100   295    infeasible            503.0000      502.0000   593185    0.20%
   3200   239      502.0000    60      503.0000      502.0000   652561    0.20%
   3300   179    infeasible            503.0000      502.0000   712313    0.20%
   3400   117      502.0000    76      503.0000      502.0000   778269    0.20%
   3500    57      502.0000    71      503.0000      502.0000   842028    0.20%
   3600    49      502.0000    90      503.0000      502.0000   900933    0.20%

Cover cuts applied:  828
Mixed integer rounding cuts applied:  26
Zero-half cuts applied:  1
Gomory fractional cuts applied:  6

Solution pool: 8 solutions saved.

MIP - Integer optimal solution:  Objective = 5.0300000000e+002
Solution time =  266.03 sec.  Iterations = 942470  Nodes = 3664


Incumbent solution
Variable Name           Solution Value
Cmax                        503.000000
X_1_6                         1.000000
X_2_9                         1.000000
X_3_4                         1.000000
X_4_7                         1.000000
X_5_6                         1.000000
X_6_8                         1.000000
X_7_5                         1.000000
X_8_6                         1.000000
X_9_10                        1.000000
X_10_7                        1.000000
X_11_10                       1.000000
X_12_1                        1.000000
X_13_10                       1.000000
X_14_9                        1.000000
X_15_1                        1.000000
X_16_2                        1.000000
X_17_4                        1.000000
X_18_3                        1.000000
X_19_10                       1.000000
X_20_3                        1.000000
X_21_4                        1.000000
X_22_8                        1.000000
X_23_9                        1.000000
X_24_3                        1.000000
X_25_2                        1.000000
X_26_9                        1.000000
X_27_5                        1.000000
X_28_3                        1.000000
X_29_3                        1.000000
X_30_7                        1.000000
X_31_1                        1.000000
X_32_7                        1.000000
X_33_6                        1.000000
X_34_1                        1.000000
X_35_7                        1.000000
X_36_10                       1.000000
X_37_3                        1.000000
X_38_2                        1.000000
X_39_10                       1.000000
X_40_4                        1.000000
X_41_5                        1.000000
X_42_3                        1.000000
X_43_2                        1.000000
X_44_9                        1.000000
X_45_3                        1.000000
X_46_7                        1.000000
X_47_4                        1.000000
X_48_10                       1.000000
X_49_8                        1.000000
X_50_5                        1.000000
X_51_3                        1.000000
X_52_2                        1.000000
X_53_2                        1.000000
X_54_5                        1.000000
X_55_1                        1.000000
X_56_6                        1.000000
X_57_1                        1.000000
X_58_3                        1.000000
X_59_9                        1.000000
X_60_8                        1.000000
X_61_9                        1.000000
X_62_1                        1.000000
X_63_10                       1.000000
X_64_4                        1.000000
X_65_4                        1.000000
X_66_6                        1.000000
X_67_10                       1.000000
X_68_4                        1.000000
X_69_7                        1.000000
X_70_9                        1.000000
X_71_10                       1.000000
X_72_1                        1.000000
X_73_1                        1.000000
X_74_4                        1.000000
X_75_7                        1.000000
X_76_3                        1.000000
X_77_9                        1.000000
X_78_5                        1.000000
X_79_5                        1.000000
X_80_3                        1.000000
X_81_9                        1.000000
X_82_8                        1.000000
X_83_4                        1.000000
X_84_10                       1.000000
X_85_6                        1.000000
X_86_10                       1.000000
X_87_2                        1.000000
X_88_10                       1.000000
X_89_6                        1.000000
X_90_3                        1.000000
X_91_7                        1.000000
X_92_1                        1.000000
X_93_10                       1.000000
X_94_8                        1.000000
X_95_5                        1.000000
X_96_1                        1.000000
X_97_1                        1.000000
X_98_5                        1.000000
X_99_8                        1.000000
X_100_10                      1.000000
X_101_5                       1.000000
X_102_5                       1.000000
X_103_6                       1.000000
X_104_9                       1.000000
X_105_2                       1.000000
X_106_7                       1.000000
X_107_4                       1.000000
X_108_8                       1.000000
X_109_6                       1.000000
X_110_1                       1.000000
X_111_10                      1.000000
X_112_9                       1.000000
X_113_5                       1.000000
X_114_7                       1.000000
X_115_7                       1.000000
X_116_4                       1.000000
X_117_8                       1.000000
X_118_9                       1.000000
X_119_10                      1.000000
X_120_7                       1.000000
X_121_2                       1.000000
X_122_2                       1.000000
X_123_2                       1.000000
X_124_10                      1.000000
X_125_4                       1.000000
X_126_10                      1.000000
X_127_9                       1.000000
X_128_4                       1.000000
X_129_5                       1.000000
X_130_2                       1.000000
X_131_9                       1.000000
X_132_1                       1.000000
X_133_8                       1.000000
X_134_5                       1.000000
X_135_9                       1.000000
X_136_1                       1.000000
X_137_9                       1.000000
X_138_6                       1.000000
X_139_5                       1.000000
X_140_2                       1.000000
X_141_10                      1.000000
X_142_4                       1.000000
X_143_9                       1.000000
X_144_5                       1.000000
X_145_3                       1.000000
X_146_1                       1.000000
X_147_7                       1.000000
X_148_9                       1.000000
X_149_8                       1.000000
X_150_10                      1.000000
X_151_7                       1.000000
X_152_7                       1.000000
X_153_10                      1.000000
X_154_6                       1.000000
X_155_1                       1.000000
X_156_4                       1.000000
X_157_2                       1.000000
X_158_9                       1.000000
X_159_7                       1.000000
X_160_2                       1.000000
X_161_9                       1.000000
X_162_2                       1.000000
X_163_5                       1.000000
X_164_9                       1.000000
X_165_5                       1.000000
X_166_3                       1.000000
X_167_9                       1.000000
X_168_6                       1.000000
X_169_1                       1.000000
X_170_1                       1.000000
X_171_4                       1.000000
X_172_5                       1.000000
X_173_9                       1.000000
X_174_3                       1.000000
X_175_8                       1.000000
X_176_2                       1.000000
X_177_10                      1.000000
X_178_8                       1.000000
X_179_10                      1.000000
X_180_6                       1.000000
X_181_5                       1.000000
X_182_5                       1.000000
X_183_8                       1.000000
X_184_1                       1.000000
X_185_10                      1.000000
X_186_2                       1.000000
X_187_2                       1.000000
X_188_6                       1.000000
X_189_1                       1.000000
X_190_10                      1.000000
X_191_3                       1.000000
X_192_6                       1.000000
X_193_6                       1.000000
X_194_6                       1.000000
X_195_7                       1.000000
X_196_6                       1.000000
X_197_8                       1.000000
X_198_7                       1.000000
X_199_7                       1.000000
X_200_8                       1.000000
X_201_4                       1.000000
X_202_5                       1.000000
X_203_9                       1.000000
X_204_8                       1.000000
X_205_9                       1.000000
X_206_8                       1.000000
X_207_1                       1.000000
X_208_1                       1.000000
X_209_6                       1.000000
X_210_6                       1.000000
X_211_1                       1.000000
X_212_5                       1.000000
X_213_4                       1.000000
X_214_3                       1.000000
X_215_3                       1.000000
X_216_5                       1.000000
X_217_3                       1.000000
X_218_2                       1.000000
X_219_10                      1.000000
X_220_1                       1.000000
X_221_9                       1.000000
X_222_8                       1.000000
X_223_3                       1.000000
X_224_4                       1.000000
X_225_10                      1.000000
X_226_8                       1.000000
X_227_4                       1.000000
X_228_4                       1.000000
X_229_4                       1.000000
X_230_6                       1.000000
X_231_2                       1.000000
X_232_5                       1.000000
X_233_1                       1.000000
X_234_7                       1.000000
X_235_6                       1.000000
X_236_6                       1.000000
X_237_8                       1.000000
X_238_8                       1.000000
X_239_4                       1.000000
X_240_6                       1.000000
X_241_9                       1.000000
X_242_3                       1.000000
X_243_9                       1.000000
X_244_7                       1.000000
X_245_3                       1.000000
X_246_2                       1.000000
X_247_5                       1.000000
X_248_7                       1.000000
X_249_9                       1.000000
X_250_2                       1.000000
X_251_8                       1.000000
X_252_7                       1.000000
X_253_6                       1.000000
X_254_5                       1.000000
X_255_4                       1.000000
X_256_4                       1.000000
X_257_8                       1.000000
X_258_9                       1.000000
X_259_10                      1.000000
X_260_2                       1.000000
X_261_3                       1.000000
X_262_4                       1.000000
X_263_9                       1.000000
X_264_2                       1.000000
X_265_5                       1.000000
X_266_4                       1.000000
X_267_3                       1.000000
X_268_10                      1.000000
X_269_7                       1.000000
X_270_3                       1.000000
X_271_6                       1.000000
X_272_8                       1.000000
X_273_7                       1.000000
X_274_5                       1.000000
X_275_3                       1.000000
X_276_8                       1.000000
X_277_7                       1.000000
X_278_8                       1.000000
X_279_4                       1.000000
X_280_4                       1.000000
X_281_7                       1.000000
X_282_10                      1.000000
X_283_2                       1.000000
X_284_6                       1.000000
X_285_8                       1.000000
X_286_3                       1.000000
X_287_1                       1.000000
X_288_9                       1.000000
X_289_8                       1.000000
X_290_6                       1.000000
X_291_2                       1.000000
X_292_9                       1.000000
X_293_1                       1.000000
X_294_10                      1.000000
X_295_8                       1.000000
X_296_10                      1.000000
X_297_9                       1.000000
X_298_2                       1.000000
X_299_6                       1.000000
X_300_8                       1.000000
X_301_4                       1.000000
X_302_7                       1.000000
X_303_5                       1.000000
X_304_10                      1.000000
X_305_5                       1.000000
X_306_6                       1.000000
X_307_2                       1.000000
X_308_3                       1.000000
X_309_6                       1.000000
X_310_1                       1.000000
X_311_4                       1.000000
X_312_8                       1.000000
X_313_6                       1.000000
X_314_2                       1.000000
X_315_3                       1.000000
X_316_8                       1.000000
X_317_4                       1.000000
X_318_5                       1.000000
X_319_1                       1.000000
X_320_4                       1.000000
X_321_7                       1.000000
X_322_9                       1.000000
X_323_3                       1.000000
X_324_8                       1.000000
X_325_8                       1.000000
X_326_5                       1.000000
X_327_2                       1.000000
X_328_6                       1.000000
X_329_5                       1.000000
X_330_9                       1.000000
X_331_3                       1.000000
X_332_10                      1.000000
X_333_2                       1.000000
X_334_5                       1.000000
X_335_7                       1.000000
X_336_8                       1.000000
X_337_3                       1.000000
X_338_7                       1.000000
X_339_2                       1.000000
X_340_8                       1.000000
X_341_10                      1.000000
X_342_10                      1.000000
X_343_2                       1.000000
X_344_5                       1.000000
X_345_7                       1.000000
X_346_3                       1.000000
X_347_2                       1.000000
X_348_8                       1.000000
X_349_4                       1.000000
X_350_8                       1.000000
X_351_1                       1.000000
X_352_5                       1.000000
X_353_6                       1.000000
X_354_4                       1.000000
X_355_2                       1.000000
X_356_6                       1.000000
X_357_4                       1.000000
X_358_1                       1.000000
X_359_6                       1.000000
X_360_7                       1.000000
X_361_1                       1.000000
X_362_5                       1.000000
X_363_6                       1.000000
X_364_10                      1.000000
X_365_8                       1.000000
X_366_7                       1.000000
X_367_1                       1.000000
X_368_6                       1.000000
X_369_9                       1.000000
X_370_7                       1.000000
X_371_3                       1.000000
X_372_8                       1.000000
X_373_7                       1.000000
X_374_4                       1.000000
X_375_5                       1.000000
X_376_4                       1.000000
X_377_3                       1.000000
X_378_7                       1.000000
X_379_3                       1.000000
X_380_3                       1.000000
X_381_5                       1.000000
X_382_10                      1.000000
X_383_4                       1.000000
X_384_4                       1.000000
X_385_9                       1.000000
X_386_3                       1.000000
X_387_2                       1.000000
X_388_5                       1.000000
X_389_4                       1.000000
X_390_7                       1.000000
X_391_6                       1.000000
X_392_6                       1.000000
X_393_3                       1.000000
X_394_2                       1.000000
X_395_7                       1.000000
X_396_6                       1.000000
X_397_7                       1.000000
X_398_8                       1.000000
X_399_4                       1.000000
X_400_3                       1.000000
X_401_9                       1.000000
X_402_6                       1.000000
X_403_7                       1.000000
X_404_1                       1.000000
X_405_10                      1.000000
X_406_6                       1.000000
X_407_8                       1.000000
X_408_9                       1.000000
X_409_2                       1.000000
X_410_8                       1.000000
X_411_10                      1.000000
X_412_6                       1.000000
X_413_1                       1.000000
X_414_8                       1.000000
X_415_7                       1.000000
X_416_5                       1.000000
X_417_8                       1.000000
X_418_3                       1.000000
X_419_8                       1.000000
X_420_3                       1.000000
X_421_10                      1.000000
X_422_4                       1.000000
X_423_8                       1.000000
X_424_9                       1.000000
X_425_8                       1.000000
X_426_1                       1.000000
X_427_1                       1.000000
X_428_2                       1.000000
X_429_1                       1.000000
X_430_4                       1.000000
X_431_10                      1.000000
X_432_10                      1.000000
X_433_5                       1.000000
X_434_5                       1.000000
X_435_1                       1.000000
X_436_7                       1.000000
X_437_1                       1.000000
X_438_8                       1.000000
X_439_2                       1.000000
X_440_5                       1.000000
X_441_2                       1.000000
X_442_5                       1.000000
X_443_4                       1.000000
X_444_7                       1.000000
X_445_8                       1.000000
X_446_6                       1.000000
X_447_10                      1.000000
X_448_10                      1.000000
X_449_9                       1.000000
X_450_5                       1.000000
X_451_5                       1.000000
X_452_9                       1.000000
X_453_5                       1.000000
X_454_4                       1.000000
X_455_6                       1.000000
X_456_1                       1.000000
X_457_4                       1.000000
X_458_1                       1.000000
X_459_6                       1.000000
X_460_2                       1.000000
X_461_10                      1.000000
X_462_2                       1.000000
X_463_9                       1.000000
X_464_5                       1.000000
X_465_5                       1.000000
X_466_9                       1.000000
X_467_2                       1.000000
X_468_3                       1.000000
X_469_5                       1.000000
X_470_6                       1.000000
X_471_3                       1.000000
X_472_1                       1.000000
X_473_9                       1.000000
X_474_5                       1.000000
X_475_2                       1.000000
X_476_6                       1.000000
X_477_3                       1.000000
X_478_5                       1.000000
X_479_4                       1.000000
X_480_3                       1.000000
X_481_10                      1.000000
X_482_3                       1.000000
X_483_6                       1.000000
X_484_1                       1.000000
X_485_3                       1.000000
X_486_1                       1.000000
X_487_3                       1.000000
X_488_10                      1.000000
X_489_1                       1.000000
X_490_7                       1.000000
X_491_1                       1.000000
X_492_4                       1.000000
X_493_8                       1.000000
X_494_5                       1.000000
X_495_10                      1.000000
X_496_7                       1.000000
X_497_2                       1.000000
X_498_1                       1.000000
X_499_6                       1.000000
X_500_10                      1.000000
All other variables in the range 1-5001 are 0.
